(set-logic ALL)
(declare-const BAV1 Bool)
(declare-const BAV2 Bool)
(declare-const BAV3 Bool)
(declare-const BAV4 Bool)
(set-info :source |Written by Martin for issue #2932|)
(set-info :smt-lib-version 2.5)
(set-info :category crafted)
(declare-fun x () (_ FloatingPoint 3 5))
(assert (fp.isPositive x))
(declare-fun xx () (_ FloatingPoint 3 5))
(assert (= xx (fp.roundToIntegral RNE x)))
(assert (not (= x xx)))
(declare-fun xxx () (_ FloatingPoint 3 5))
(assert (= xxx (fp.roundToIntegral RNE xx)))
(assert (not (= xx xxx)))
(assert (= BAV1 (= xx (fp.roundToIntegral RNE x))))
(assert (= BAV2 (= x xx)))
(assert (= BAV3 (= xxx (fp.roundToIntegral RNE xx))))
(assert (= BAV4 (= xx xxx)))
(check-sat)
(exit)